letting n =  10
letting blocks =  [[1, 1], [1, 2], [2, 4], [3, 7], [3, 8], [4, 1], [4, 8], [4, 9], [5, 8], [5, 9], [5, 10], [6, 1], [6, 3], [6, 5], [6, 6], [6, 9], [7, 10], [8, 7], [8, 8], [8, 10], [9, 4], [9, 6], [9, 9], [9, 10], [10, 8], [10, 10]]
